c File: flat75_3_0.col
c
c SOURCE: Joseph Culberson (joe@cs.ualberta.ca)
c DESCRIPTION: Quasi-random coloring problem
c              generated with flatness = 0
c                             probability = 0.096
c                             known coloring = 3
c                             random seed = 1023
c              Creation Date:  Wed Feb 24 10:41:53 1999
c Maximum degree = 8 Minimum degree = 2
c COLOR VERIFICATION: Using the permuted order
c under simple greedy yields the specified
c coloring number
c Color = 3 specified partitions = 3
c p edge 75 180
c cnf created by edge2cnf
p cnf 225 840
-1 -2 0
-1 -3 0
-2 -3 0
1 2 3 0
-4 -5 0
-4 -6 0
-5 -6 0
4 5 6 0
-7 -8 0
-7 -9 0
-8 -9 0
7 8 9 0
-10 -11 0
-10 -12 0
-11 -12 0
10 11 12 0
-13 -14 0
-13 -15 0
-14 -15 0
13 14 15 0
-16 -17 0
-16 -18 0
-17 -18 0
16 17 18 0
-19 -20 0
-19 -21 0
-20 -21 0
19 20 21 0
-22 -23 0
-22 -24 0
-23 -24 0
22 23 24 0
-25 -26 0
-25 -27 0
-26 -27 0
25 26 27 0
-28 -29 0
-28 -30 0
-29 -30 0
28 29 30 0
-31 -32 0
-31 -33 0
-32 -33 0
31 32 33 0
-34 -35 0
-34 -36 0
-35 -36 0
34 35 36 0
-37 -38 0
-37 -39 0
-38 -39 0
37 38 39 0
-40 -41 0
-40 -42 0
-41 -42 0
40 41 42 0
-43 -44 0
-43 -45 0
-44 -45 0
43 44 45 0
-46 -47 0
-46 -48 0
-47 -48 0
46 47 48 0
-49 -50 0
-49 -51 0
-50 -51 0
49 50 51 0
-52 -53 0
-52 -54 0
-53 -54 0
52 53 54 0
-55 -56 0
-55 -57 0
-56 -57 0
55 56 57 0
-58 -59 0
-58 -60 0
-59 -60 0
58 59 60 0
-61 -62 0
-61 -63 0
-62 -63 0
61 62 63 0
-64 -65 0
-64 -66 0
-65 -66 0
64 65 66 0
-67 -68 0
-67 -69 0
-68 -69 0
67 68 69 0
-70 -71 0
-70 -72 0
-71 -72 0
70 71 72 0
-73 -74 0
-73 -75 0
-74 -75 0
73 74 75 0
-76 -77 0
-76 -78 0
-77 -78 0
76 77 78 0
-79 -80 0
-79 -81 0
-80 -81 0
79 80 81 0
-82 -83 0
-82 -84 0
-83 -84 0
82 83 84 0
-85 -86 0
-85 -87 0
-86 -87 0
85 86 87 0
-88 -89 0
-88 -90 0
-89 -90 0
88 89 90 0
-91 -92 0
-91 -93 0
-92 -93 0
91 92 93 0
-94 -95 0
-94 -96 0
-95 -96 0
94 95 96 0
-97 -98 0
-97 -99 0
-98 -99 0
97 98 99 0
-100 -101 0
-100 -102 0
-101 -102 0
100 101 102 0
-103 -104 0
-103 -105 0
-104 -105 0
103 104 105 0
-106 -107 0
-106 -108 0
-107 -108 0
106 107 108 0
-109 -110 0
-109 -111 0
-110 -111 0
109 110 111 0
-112 -113 0
-112 -114 0
-113 -114 0
112 113 114 0
-115 -116 0
-115 -117 0
-116 -117 0
115 116 117 0
-118 -119 0
-118 -120 0
-119 -120 0
118 119 120 0
-121 -122 0
-121 -123 0
-122 -123 0
121 122 123 0
-124 -125 0
-124 -126 0
-125 -126 0
124 125 126 0
-127 -128 0
-127 -129 0
-128 -129 0
127 128 129 0
-130 -131 0
-130 -132 0
-131 -132 0
130 131 132 0
-133 -134 0
-133 -135 0
-134 -135 0
133 134 135 0
-136 -137 0
-136 -138 0
-137 -138 0
136 137 138 0
-139 -140 0
-139 -141 0
-140 -141 0
139 140 141 0
-142 -143 0
-142 -144 0
-143 -144 0
142 143 144 0
-145 -146 0
-145 -147 0
-146 -147 0
145 146 147 0
-148 -149 0
-148 -150 0
-149 -150 0
148 149 150 0
-151 -152 0
-151 -153 0
-152 -153 0
151 152 153 0
-154 -155 0
-154 -156 0
-155 -156 0
154 155 156 0
-157 -158 0
-157 -159 0
-158 -159 0
157 158 159 0
-160 -161 0
-160 -162 0
-161 -162 0
160 161 162 0
-163 -164 0
-163 -165 0
-164 -165 0
163 164 165 0
-166 -167 0
-166 -168 0
-167 -168 0
166 167 168 0
-169 -170 0
-169 -171 0
-170 -171 0
169 170 171 0
-172 -173 0
-172 -174 0
-173 -174 0
172 173 174 0
-175 -176 0
-175 -177 0
-176 -177 0
175 176 177 0
-178 -179 0
-178 -180 0
-179 -180 0
178 179 180 0
-181 -182 0
-181 -183 0
-182 -183 0
181 182 183 0
-184 -185 0
-184 -186 0
-185 -186 0
184 185 186 0
-187 -188 0
-187 -189 0
-188 -189 0
187 188 189 0
-190 -191 0
-190 -192 0
-191 -192 0
190 191 192 0
-193 -194 0
-193 -195 0
-194 -195 0
193 194 195 0
-196 -197 0
-196 -198 0
-197 -198 0
196 197 198 0
-199 -200 0
-199 -201 0
-200 -201 0
199 200 201 0
-202 -203 0
-202 -204 0
-203 -204 0
202 203 204 0
-205 -206 0
-205 -207 0
-206 -207 0
205 206 207 0
-208 -209 0
-208 -210 0
-209 -210 0
208 209 210 0
-211 -212 0
-211 -213 0
-212 -213 0
211 212 213 0
-214 -215 0
-214 -216 0
-215 -216 0
214 215 216 0
-217 -218 0
-217 -219 0
-218 -219 0
217 218 219 0
-220 -221 0
-220 -222 0
-221 -222 0
220 221 222 0
-223 -224 0
-223 -225 0
-224 -225 0
223 224 225 0
-28 -1 0
-29 -2 0
-30 -3 0
-91 -1 0
-92 -2 0
-93 -3 0
-154 -1 0
-155 -2 0
-156 -3 0
-208 -1 0
-209 -2 0
-210 -3 0
-7 -4 0
-8 -5 0
-9 -6 0
-37 -4 0
-38 -5 0
-39 -6 0
-199 -4 0
-200 -5 0
-201 -6 0
-97 -7 0
-98 -8 0
-99 -9 0
-142 -7 0
-143 -8 0
-144 -9 0
-223 -7 0
-224 -8 0
-225 -9 0
-19 -10 0
-20 -11 0
-21 -12 0
-55 -10 0
-56 -11 0
-57 -12 0
-109 -10 0
-110 -11 0
-111 -12 0
-115 -10 0
-116 -11 0
-117 -12 0
-163 -10 0
-164 -11 0
-165 -12 0
-46 -13 0
-47 -14 0
-48 -15 0
-58 -13 0
-59 -14 0
-60 -15 0
-127 -13 0
-128 -14 0
-129 -15 0
-130 -13 0
-131 -14 0
-132 -15 0
-148 -13 0
-149 -14 0
-150 -15 0
-178 -13 0
-179 -14 0
-180 -15 0
-205 -13 0
-206 -14 0
-207 -15 0
-34 -16 0
-35 -17 0
-36 -18 0
-199 -16 0
-200 -17 0
-201 -18 0
-214 -16 0
-215 -17 0
-216 -18 0
-160 -19 0
-161 -20 0
-162 -21 0
-196 -19 0
-197 -20 0
-198 -21 0
-223 -19 0
-224 -20 0
-225 -21 0
-94 -22 0
-95 -23 0
-96 -24 0
-109 -22 0
-110 -23 0
-111 -24 0
-127 -22 0
-128 -23 0
-129 -24 0
-223 -22 0
-224 -23 0
-225 -24 0
-79 -25 0
-80 -26 0
-81 -27 0
-88 -25 0
-89 -26 0
-90 -27 0
-91 -25 0
-92 -26 0
-93 -27 0
-136 -25 0
-137 -26 0
-138 -27 0
-157 -25 0
-158 -26 0
-159 -27 0
-58 -28 0
-59 -29 0
-60 -30 0
-106 -28 0
-107 -29 0
-108 -30 0
-181 -28 0
-182 -29 0
-183 -30 0
-52 -31 0
-53 -32 0
-54 -33 0
-64 -31 0
-65 -32 0
-66 -33 0
-73 -31 0
-74 -32 0
-75 -33 0
-199 -31 0
-200 -32 0
-201 -33 0
-70 -34 0
-71 -35 0
-72 -36 0
-88 -34 0
-89 -35 0
-90 -36 0
-148 -37 0
-149 -38 0
-150 -39 0
-166 -37 0
-167 -38 0
-168 -39 0
-172 -37 0
-173 -38 0
-174 -39 0
-148 -40 0
-149 -41 0
-150 -42 0
-160 -40 0
-161 -41 0
-162 -42 0
-208 -40 0
-209 -41 0
-210 -42 0
-67 -43 0
-68 -44 0
-69 -45 0
-127 -43 0
-128 -44 0
-129 -45 0
-154 -43 0
-155 -44 0
-156 -45 0
-163 -43 0
-164 -44 0
-165 -45 0
-73 -46 0
-74 -47 0
-75 -48 0
-115 -46 0
-116 -47 0
-117 -48 0
-145 -46 0
-146 -47 0
-147 -48 0
-193 -46 0
-194 -47 0
-195 -48 0
-61 -49 0
-62 -50 0
-63 -51 0
-82 -49 0
-83 -50 0
-84 -51 0
-94 -49 0
-95 -50 0
-96 -51 0
-133 -49 0
-134 -50 0
-135 -51 0
-187 -49 0
-188 -50 0
-189 -51 0
-82 -52 0
-83 -53 0
-84 -54 0
-85 -52 0
-86 -53 0
-87 -54 0
-214 -52 0
-215 -53 0
-216 -54 0
-82 -55 0
-83 -56 0
-84 -57 0
-157 -58 0
-158 -59 0
-159 -60 0
-79 -61 0
-80 -62 0
-81 -63 0
-172 -61 0
-173 -62 0
-174 -63 0
-178 -61 0
-179 -62 0
-180 -63 0
-205 -64 0
-206 -65 0
-207 -66 0
-214 -64 0
-215 -65 0
-216 -66 0
-217 -64 0
-218 -65 0
-219 -66 0
-88 -67 0
-89 -68 0
-90 -69 0
-94 -67 0
-95 -68 0
-96 -69 0
-157 -67 0
-158 -68 0
-159 -69 0
-193 -67 0
-194 -68 0
-195 -69 0
-73 -70 0
-74 -71 0
-75 -72 0
-106 -70 0
-107 -71 0
-108 -72 0
-112 -70 0
-113 -71 0
-114 -72 0
-148 -70 0
-149 -71 0
-150 -72 0
-154 -70 0
-155 -71 0
-156 -72 0
-157 -70 0
-158 -71 0
-159 -72 0
-211 -70 0
-212 -71 0
-213 -72 0
-100 -73 0
-101 -74 0
-102 -75 0
-121 -73 0
-122 -74 0
-123 -75 0
-139 -73 0
-140 -74 0
-141 -75 0
-154 -73 0
-155 -74 0
-156 -75 0
-100 -76 0
-101 -77 0
-102 -78 0
-109 -76 0
-110 -77 0
-111 -78 0
-130 -76 0
-131 -77 0
-132 -78 0
-133 -76 0
-134 -77 0
-135 -78 0
-178 -76 0
-179 -77 0
-180 -78 0
-214 -76 0
-215 -77 0
-216 -78 0
-223 -76 0
-224 -77 0
-225 -78 0
-97 -79 0
-98 -80 0
-99 -81 0
-142 -79 0
-143 -80 0
-144 -81 0
-91 -82 0
-92 -83 0
-93 -84 0
-88 -85 0
-89 -86 0
-90 -87 0
-97 -85 0
-98 -86 0
-99 -87 0
-109 -85 0
-110 -86 0
-111 -87 0
-94 -88 0
-95 -89 0
-96 -90 0
-133 -88 0
-134 -89 0
-135 -90 0
-139 -88 0
-140 -89 0
-141 -90 0
-124 -91 0
-125 -92 0
-126 -93 0
-136 -91 0
-137 -92 0
-138 -93 0
-190 -91 0
-191 -92 0
-192 -93 0
-208 -94 0
-209 -95 0
-210 -96 0
-130 -97 0
-131 -98 0
-132 -99 0
-106 -100 0
-107 -101 0
-108 -102 0
-118 -100 0
-119 -101 0
-120 -102 0
-124 -100 0
-125 -101 0
-126 -102 0
-142 -100 0
-143 -101 0
-144 -102 0
-193 -100 0
-194 -101 0
-195 -102 0
-127 -103 0
-128 -104 0
-129 -105 0
-223 -103 0
-224 -104 0
-225 -105 0
-211 -106 0
-212 -107 0
-213 -108 0
-148 -109 0
-149 -110 0
-150 -111 0
-211 -109 0
-212 -110 0
-213 -111 0
-139 -112 0
-140 -113 0
-141 -114 0
-145 -112 0
-146 -113 0
-147 -114 0
-148 -112 0
-149 -113 0
-150 -114 0
-154 -112 0
-155 -113 0
-156 -114 0
-184 -112 0
-185 -113 0
-186 -114 0
-211 -112 0
-212 -113 0
-213 -114 0
-124 -115 0
-125 -116 0
-126 -117 0
-130 -115 0
-131 -116 0
-132 -117 0
-217 -115 0
-218 -116 0
-219 -117 0
-136 -118 0
-137 -119 0
-138 -120 0
-151 -118 0
-152 -119 0
-153 -120 0
-175 -118 0
-176 -119 0
-177 -120 0
-214 -118 0
-215 -119 0
-216 -120 0
-139 -121 0
-140 -122 0
-141 -123 0
-163 -121 0
-164 -122 0
-165 -123 0
-187 -121 0
-188 -122 0
-189 -123 0
-196 -124 0
-197 -125 0
-198 -126 0
-169 -127 0
-170 -128 0
-171 -129 0
-160 -130 0
-161 -131 0
-162 -132 0
-181 -130 0
-182 -131 0
-183 -132 0
-169 -139 0
-170 -140 0
-171 -141 0
-175 -139 0
-176 -140 0
-177 -141 0
-178 -139 0
-179 -140 0
-180 -141 0
-196 -139 0
-197 -140 0
-198 -141 0
-148 -142 0
-149 -143 0
-150 -144 0
-220 -142 0
-221 -143 0
-222 -144 0
-154 -145 0
-155 -146 0
-156 -147 0
-166 -145 0
-167 -146 0
-168 -147 0
-172 -145 0
-173 -146 0
-174 -147 0
-181 -145 0
-182 -146 0
-183 -147 0
-193 -145 0
-194 -146 0
-195 -147 0
-196 -145 0
-197 -146 0
-198 -147 0
-172 -151 0
-173 -152 0
-174 -153 0
-205 -151 0
-206 -152 0
-207 -153 0
-217 -151 0
-218 -152 0
-219 -153 0
-166 -154 0
-167 -155 0
-168 -156 0
-223 -154 0
-224 -155 0
-225 -156 0
-187 -157 0
-188 -158 0
-189 -159 0
-190 -157 0
-191 -158 0
-192 -159 0
-208 -157 0
-209 -158 0
-210 -159 0
-172 -160 0
-173 -161 0
-174 -162 0
-181 -160 0
-182 -161 0
-183 -162 0
-196 -160 0
-197 -161 0
-198 -162 0
-178 -163 0
-179 -164 0
-180 -165 0
-172 -166 0
-173 -167 0
-174 -168 0
-223 -169 0
-224 -170 0
-225 -171 0
-175 -172 0
-176 -173 0
-177 -174 0
-184 -175 0
-185 -176 0
-186 -177 0
-208 -175 0
-209 -176 0
-210 -177 0
-220 -175 0
-221 -176 0
-222 -177 0
-202 -178 0
-203 -179 0
-204 -180 0
-217 -181 0
-218 -182 0
-219 -183 0
-220 -184 0
-221 -185 0
-222 -186 0
-199 -187 0
-200 -188 0
-201 -189 0
-205 -193 0
-206 -194 0
-207 -195 0
-220 -202 0
-221 -203 0
-222 -204 0
-211 -205 0
-212 -206 0
-213 -207 0
-223 -217 0
-224 -218 0
-225 -219 0
